%chk=c1ccccc1.chk
%nproc=2
%mem=2GB
#p opt freq b3lyp/6-311+G(d,p) scf=tight int=ultrafine

Title Card Required

0 1
 C             -0.7600    1.1691    0.0210
 C             0.6329    1.2439    -0.0121
 C             1.3941    0.0769    -0.0113
 C             0.7640    -1.1676    0.0243
 C             -0.6289    -1.2425    -0.0109
 C             -1.3900    -0.0754    -0.0131
 H             -1.3526    2.0777    0.0681
 H             1.1236    2.2138    -0.0349
 H             2.4794    0.1348    -0.0345
 H             1.3566    -2.0761    0.0742
 H             -1.1194    -2.2124    -0.0330
 H             -2.4753    -0.1334    -0.0376

